Gurobi Optimizer version 9.1.2 build v9.1.2rc0 (linux64)
Thread count: 36 physical cores, 72 logical processors, using up to 32 threads
Optimize a model with 12 rows, 57 columns and 590 nonzeros
Model fingerprint: 0xf32eec78
Model has 47 quadratic constraints
Coefficient statistics:
  Matrix range     [2e-05, 3e+00]
  QMatrix range    [1e+00, 1e+00]
  QLMatrix range   [1e+00, 1e+00]
  Objective range  [8e-03, 7e-01]
  Bounds range     [1e+00, 1e+00]
  RHS range        [1e+00, 1e+00]
Presolve removed 9 rows and 0 columns

Continuous model is non-convex -- solving as a MIP.

Presolve removed 9 rows and 0 columns
Presolve time: 0.00s
Presolved: 189 rows, 57 columns, 443 nonzeros
Presolved model has 47 bilinear constraint(s)
Variable types: 57 continuous, 0 integer (0 binary)

Root relaxation: objective -1.743721e+00, 44 iterations, 0.00 seconds

    Nodes    |    Current Node    |     Objective Bounds      |     Work
 Expl Unexpl |  Obj  Depth IntInf | Incumbent    BestBd   Gap | It/Node Time

     0     0   -1.74372    0   38          -   -1.74372      -     -    0s
H    0     0                       0.6147548   -1.74372   384%     -    0s
     0     0   -1.64739    0    1    0.61475   -1.64739   368%     -    0s
H    0     0                      -1.6450460   -1.64739  0.14%     -    0s
     0     0     cutoff    0        -1.64505   -1.64505  0.00%     -    0s

Cutting planes:
  RLT: 25
  BQP: 3

Explored 1 nodes (76 simplex iterations) in 0.01 seconds
Thread count was 32 (of 72 available processors)

Solution count 2: -1.64505 0.614755 
No other solutions better than -1.64505

Optimal solution found (tolerance 1.00e-04)
Best objective -1.645045978473e+00, best bound -1.645045978473e+00, gap 0.0000%

User-callback calls 78, time in user-callback 0.00 sec
Gurobi Optimizer version 9.1.2 build v9.1.2rc0 (linux64)
Thread count: 36 physical cores, 72 logical processors, using up to 32 threads
Optimize a model with 24 rows, 125 columns and 2580 nonzeros
Model fingerprint: 0x09b89ffd
Model has 105 quadratic constraints
Coefficient statistics:
  Matrix range     [5e-06, 5e+01]
  QMatrix range    [1e+00, 1e+00]
  QLMatrix range   [1e+00, 1e+00]
  Objective range  [1e-02, 9e-01]
  Bounds range     [1e+00, 1e+00]
  RHS range        [1e+00, 1e+00]
Presolve removed 11 rows and 0 columns

Continuous model is non-convex -- solving as a MIP.

Presolve removed 11 rows and 0 columns
Presolve time: 0.00s
Presolved: 428 rows, 125 columns, 2018 nonzeros
Presolved model has 105 bilinear constraint(s)
Variable types: 125 continuous, 0 integer (0 binary)

Root relaxation: objective -4.249353e+00, 138 iterations, 0.00 seconds

    Nodes    |    Current Node    |     Objective Bounds      |     Work
 Expl Unexpl |  Obj  Depth IntInf | Incumbent    BestBd   Gap | It/Node Time

     0     0   -4.24935    0   95          -   -4.24935      -     -    0s
H    0     0                       0.0088450   -4.24935      -     -    0s
     0     0   -3.56980    0   72    0.00885   -3.56980      -     -    0s
H    0     0                      -1.6984205   -3.56980   110%     -    0s
     0     0   -3.53515    0   46   -1.69842   -3.53515   108%     -    0s
     0     0   -3.45987    0   77   -1.69842   -3.45987   104%     -    0s
     0     0   -3.44350    0   61   -1.69842   -3.44350   103%     -    0s
     0     0   -3.42489    0   88   -1.69842   -3.42489   102%     -    0s
H    0     0                      -1.7932046   -3.42489  91.0%     -    0s
     0     0   -3.41785    0   66   -1.79320   -3.41785  90.6%     -    0s
     0     0   -3.40868    0   66   -1.79320   -3.40868  90.1%     -    0s
     0     0   -3.40288    0   88   -1.79320   -3.40288  89.8%     -    0s
     0     0   -3.39520    0   52   -1.79320   -3.39520  89.3%     -    0s
     0     0   -3.39466    0   66   -1.79320   -3.39466  89.3%     -    0s
     0     0   -3.39429    0   77   -1.79320   -3.39429  89.3%     -    0s
     0     0   -3.39381    0   77   -1.79320   -3.39381  89.3%     -    0s
H    0     0                      -2.2145981   -3.39381  53.2%     -    0s
H    0     0                      -2.2815105   -3.39381  48.8%     -    0s
H    0     0                      -2.5894923   -3.39381  31.1%     -    0s
H    0     0                      -2.9241725   -3.39381  16.1%     -    0s
H    0     0                      -2.9343426   -3.39381  15.7%     -    0s
     0     2   -3.39381    0   77   -2.93434   -3.39381  15.7%     -    0s
*  361   150              17      -2.9405681   -2.97649  1.22%  25.5    0s
*  379   182              18      -2.9487048   -2.97649  0.94%  24.7    0s
*  466   191              23      -2.9575801   -2.97337  0.53%  21.9    0s
*  540   191              15      -2.9608125   -2.97337  0.42%  19.5    0s
*  596   156              21      -2.9646776   -2.96900  0.15%  18.4    0s
*  701    15              20      -2.9646797   -2.96543  0.03%  16.6    0s
*  756    15              22      -2.9647267   -2.96543  0.02%  15.6    0s
*  822    10              16      -2.9649362   -2.96543  0.02%  14.4    0s
*  824    10              17      -2.9649371   -2.96543  0.02%  14.4    0s

Cutting planes:
  RLT: 57
  BQP: 9
  PSD: 28

Explored 853 nodes (12362 simplex iterations) in 0.44 seconds
Thread count was 32 (of 72 available processors)

Solution count 10: -2.96494 -2.96494 -2.96473 ... -2.92417

Optimal solution found (tolerance 1.00e-04)
Best objective -2.964937082650e+00, best bound -2.965061124580e+00, gap 0.0042%

User-callback calls 1960, time in user-callback 0.00 sec



objective value: -2.9649370826496804
objective bound: -2.965061124579591
x_opt: [0.0, 0.0, 1.0, 0.0, 1.0, 0.671554682789035, 1.0, 1.0, 1.0, 0.0, 0.0, 0.19782110161342834, 0.0, 0.0, 0.0, 0.4940541717952648, 0.0, 0.0, 0.005517301964108474, 0.0]
GUROBI solution time: 0.4379160404205322




